c File: instances/12_0.65_1.col
c
c Description: Random graph of size 12 vertices and P(0.65) of edges between any two vertices.
p col 12 66
e 1 2
e 1 3
e 1 5
e 1 6
e 1 7
e 1 8
e 1 12
e 2 3
e 2 6
e 2 10
e 2 11
e 2 12
e 3 4
e 3 6
e 3 8
e 3 12
e 4 6
e 4 7
e 4 9
e 4 11
e 5 10
e 5 11
e 5 12
e 6 7
e 6 8
e 6 10
e 6 11
e 6 12
e 7 11
e 7 12
e 8 9
e 8 10
e 8 11
e 9 10
e 9 11
e 9 12